Version identifier: 12.10.0.0 | 2019-11-26 | 843d4de
CPXPARAM_WorkMem                                 28672
Tried aggregator 2 times.
Aggregator did 20 substitutions.
Reduced MIP has 73 rows, 90 columns, and 321 nonzeros.
Reduced MIP has 90 binaries, 0 generals, 0 SOSs, and 0 indicators.
Presolve time = 0,00 sec. (0,30 ticks)
Found incumbent of value 60,000000 after 0,00 sec. (0,52 ticks)
Probing time = 0,00 sec. (0,09 ticks)
Tried aggregator 1 time.
Detecting symmetries...
MIP Presolve eliminated 9 rows and 0 columns.
MIP Presolve added 18 rows and 0 columns.
Reduced MIP has 82 rows, 90 columns, and 330 nonzeros.
Reduced MIP has 90 binaries, 0 generals, 0 SOSs, and 0 indicators.
Presolve time = 0,00 sec. (0,38 ticks)
Probing time = 0,00 sec. (0,09 ticks)
Clique table members: 211.
MIP emphasis: balance optimality and feasibility.
MIP search method: dynamic search.
Parallel mode: deterministic, using up to 16 threads.
Root relaxation solution time = 0,00 sec. (0,14 ticks)

        Nodes                                         Cuts/
   Node  Left     Objective  IInf  Best Integer    Best Bound    ItCnt     Gap

*     0+    0                           60,0000        0,0000           100,00%
*     0+    0                           33,0000        0,0000           100,00%
      0     0       20,0000    27       33,0000       20,0000       16   39,39%
      0     0       20,0000    27       33,0000      Cuts: 71       32   39,39%
      0     0       20,0000    27       33,0000      Cuts: 88       63   39,39%
*     0+    0                           31,0000       20,0000            35,48%
      0     2       22,0800    66       31,0000       20,2667       97   34,62%
Elapsed time = 0,05 sec. (7,16 ticks, tree = 0,02 MB, solutions = 3)

Clique cuts applied:  17
Cover cuts applied:  43
Zero-half cuts applied:  11
Gomory fractional cuts applied:  20

Root node processing (before b&c):
  Real time             =    0,04 sec. (7,09 ticks)
Parallel b&c, 16 threads:
  Real time             =    0,04 sec. (2,56 ticks)
  Sync time (average)   =    0,03 sec.
  Wait time (average)   =    0,00 sec.
                          ------------
Total (root+branch&cut) =    0,08 sec. (9,65 ticks)
